66
1 0 4
2 1 4
3 0 1
3 1 2
3 2 4
4 3 3
5 0 2
5 1 2
5 3 3
6 0 1
6 2 3
6 5 2
7 1 2
7 2 4
7 4 1
7 6 4
8 0 1
8 2 3
9 1 2
9 3 1
9 4 5
9 5 5
9 7 2
9 8 2
10 0 1
10 1 3
10 2 2
10 3 4
10 5 2
11 0 2
11 1 2
11 2 5
11 6 5
11 7 4
11 8 2
11 9 5
12 0 4
12 1 1
12 2 4
12 3 1
12 4 4
12 7 5
12 10 1
12 11 3
13 0 5
13 1 3
13 5 4
13 7 4
13 9 4
13 11 4
14 0 1
14 1 1
14 3 1
14 6 4
14 8 1
14 9 4
14 11 2
15 0 3
15 1 2
15 3 4
15 4 5
15 5 2
15 6 4
15 7 2
15 8 1
15 9 2
15 10 4
15 11 4
15 13 3
16 0 4
16 1 2
16 5 2
16 6 3
16 7 2
16 8 2
16 10 4
16 11 1
16 15 1
17 0 1
17 7 3
17 8 1
17 9 3
17 10 5
17 11 5
18 0 4
18 1 1
18 4 4
18 5 1
18 6 3
18 10 5
18 15 5
19 1 1
19 5 4
19 9 5
19 11 4
19 12 1
19 13 3
19 15 3
19 17 4
19 18 1
20 4 4
20 5 2
20 6 5
20 9 2
20 12 2
20 14 4
20 16 5
21 1 1
21 4 2
21 5 1
21 6 1
21 7 1
21 8 2
21 9 1
21 11 5
21 13 2
21 16 3
21 19 3
22 5 3
22 6 4
22 7 1
22 8 1
22 10 3
22 11 5
22 12 3
22 14 3
22 16 4
22 18 3
22 21 3
23 1 3
23 2 3
23 8 3
23 11 3
23 12 2
23 13 5
23 14 1
23 17 2
23 18 3
23 19 3
23 21 4
24 1 5
24 5 1
24 7 1
24 10 5
24 11 3
24 12 3
24 13 4
24 14 1
24 20 1
24 21 4
25 2 2
25 3 1
25 4 4
25 5 5
25 6 3
25 8 4
25 9 2
25 11 2
25 12 4
25 13 3
25 14 5
25 15 2
25 16 2
25 17 5
25 19 1
25 21 3
25 22 2
25 24 4
26 0 1
26 1 1
26 2 5
26 9 4
26 10 3
26 11 3
26 12 2
26 15 1
26 16 2
26 17 2
26 18 4
26 20 3
26 21 4
26 22 5
26 23 3
26 24 3
26 25 5
27 0 2
27 1 4
27 2 1
27 3 3
27 4 4
27 7 2
27 9 3
27 10 2
27 12 4
27 13 4
27 14 5
27 17 5
27 23 4
28 0 2
28 2 5
28 5 1
28 7 1
28 8 5
28 10 3
28 12 2
28 13 4
28 14 3
28 17 3
28 18 5
28 21 2
28 25 2
28 26 4
28 27 4
29 0 4
29 3 3
29 4 3
29 5 2
29 6 5
29 9 4
29 12 2
29 13 3
29 18 4
29 19 3
29 22 1
29 23 2
29 26 4
30 4 3
30 6 4
30 7 3
30 9 3
30 12 5
30 14 5
30 17 3
30 20 5
30 23 2
30 24 5
30 26 1
30 27 3
31 1 5
31 2 1
31 3 3
31 5 4
31 9 4
31 10 2
31 14 4
31 15 5
31 16 5
31 20 4
31 21 5
31 22 2
31 23 2
31 26 3
31 27 5
31 28 5
31 30 5
32 0 5
32 1 2
32 2 5
32 3 1
32 5 2
32 6 3
32 7 5
32 8 4
32 10 3
32 11 2
32 12 3
32 14 3
32 18 5
32 21 2
32 22 1
32 23 1
32 26 2
32 27 2
32 29 5
32 30 5
32 31 3
33 0 2
33 4 4
33 7 1
33 10 1
33 11 2
33 13 1
33 14 1
33 15 1
33 16 1
33 19 1
33 24 2
33 26 2
33 27 4
33 29 1
33 30 1
33 32 2
34 0 5
34 1 5
34 6 5
34 9 2
34 10 3
34 14 1
34 16 1
34 18 2
34 19 4
34 21 5
34 22 3
34 25 1
34 28 2
34 30 1
35 0 4
35 1 5
35 2 5
35 3 5
35 5 2
35 6 1
35 7 1
35 10 1
35 12 3
35 15 3
35 16 2
35 17 1
35 19 1
35 20 3
35 22 3
35 23 5
35 25 3
35 26 2
35 27 3
35 28 5
35 29 3
35 30 3
35 31 2
35 32 1
36 0 5
36 1 3
36 3 5
36 4 2
36 6 5
36 8 5
36 9 1
36 13 1
36 15 4
36 19 3
36 23 5
36 29 2
36 31 3
36 32 1
36 33 3
37 3 1
37 5 2
37 7 5
37 8 5
37 10 3
37 12 4
37 14 4
37 18 1
37 20 3
37 21 1
37 22 5
37 23 3
37 25 1
37 26 4
37 28 1
37 30 4
37 31 1
37 33 2
37 34 4
37 35 5
37 36 2
38 2 1
38 3 4
38 4 3
38 5 5
38 6 4
38 9 5
38 10 4
38 11 2
38 15 2
38 16 3
38 17 3
38 22 4
38 23 4
38 28 1
38 29 5
38 30 3
38 31 4
38 32 1
38 34 5
39 0 2
39 2 1
39 3 5
39 5 5
39 8 4
39 9 2
39 10 3
39 13 3
39 16 1
39 17 2
39 18 5
39 19 1
39 20 1
39 21 3
39 22 4
39 23 2
39 32 4
39 33 4
39 34 2
39 35 5
39 37 1
39 38 5
40 3 4
40 4 1
40 5 4
40 6 5
40 9 4
40 10 5
40 11 4
40 13 5
40 14 3
40 15 4
40 18 3
40 21 3
40 22 3
40 23 5
40 25 5
40 27 5
40 28 4
40 30 5
40 31 3
40 33 5
40 35 1
40 36 1
40 38 4
41 0 4
41 3 4
41 4 4
41 7 2
41 12 5
41 13 5
41 20 4
41 21 5
41 25 5
41 28 3
41 30 1
41 33 2
41 34 4
41 36 3
41 37 1
41 38 5
41 39 5
42 0 2
42 2 3
42 3 3
42 4 1
42 8 2
42 9 2
42 12 4
42 15 4
42 16 4
42 18 1
42 26 3
42 29 4
42 30 2
42 31 4
42 32 2
42 33 2
42 34 2
42 35 4
42 36 5
42 39 4
43 0 1
43 2 2
43 4 4
43 5 5
43 9 1
43 11 2
43 13 2
43 16 4
43 18 3
43 20 3
43 21 4
43 24 1
43 25 4
43 31 2
43 32 1
43 34 2
43 35 2
43 36 4
43 38 1
43 39 4
43 40 4
43 42 1
44 1 3
44 3 3
44 5 2
44 7 3
44 9 2
44 11 4
44 15 2
44 16 4
44 17 3
44 18 1
44 19 1
44 22 4
44 25 1
44 27 4
44 28 4
44 29 5
44 31 4
44 33 5
44 34 3
44 35 4
44 36 1
44 38 1
45 0 1
45 1 5
45 2 1
45 4 2
45 6 2
45 7 4
45 9 2
45 16 1
45 17 2
45 18 5
45 21 1
45 22 3
45 23 1
45 25 3
45 26 3
45 27 5
45 30 5
45 31 1
45 32 3
45 34 1
45 35 4
45 36 4
45 38 4
45 40 3
45 41 3
45 43 1
45 44 3
46 2 2
46 3 1
46 5 4
46 6 3
46 8 4
46 9 5
46 10 2
46 12 3
46 14 1
46 15 5
46 17 1
46 18 1
46 20 3
46 22 4
46 23 3
46 24 1
46 25 4
46 26 1
46 31 3
46 32 1
46 35 4
46 36 3
46 37 2
46 39 4
46 42 4
46 43 2
47 0 1
47 6 1
47 7 3
47 11 3
47 16 1
47 18 3
47 20 2
47 25 5
47 28 1
47 29 1
47 37 4
47 38 1
47 39 4
47 40 4
47 42 3
47 44 3
47 46 1
48 1 4
48 4 3
48 6 2
48 9 4
48 11 4
48 12 2
48 16 4
48 17 4
48 20 3
48 21 3
48 24 5
48 26 3
48 28 1
48 31 3
48 32 2
48 33 1
48 35 3
48 36 1
48 37 4
48 38 1
48 39 5
48 40 1
48 41 3
48 42 3
48 43 5
48 45 4
48 46 3
49 2 2
49 3 5
49 5 3
49 8 1
49 10 3
49 12 1
49 14 2
49 15 5
49 17 1
49 18 4
49 22 3
49 23 5
49 25 2
49 26 1
49 27 5
49 30 5
49 31 5
49 34 3
49 39 5
49 40 4
49 44 3
49 46 1
49 47 4
50 1 3
50 6 3
50 7 4
50 8 5
50 9 5
50 11 2
50 13 4
50 14 3
50 15 3
50 17 1
50 18 2
50 19 5
50 21 5
50 23 1
50 26 2
50 30 3
50 31 4
50 34 1
50 40 5
50 41 2
50 43 2
50 44 4
51 0 5
51 4 5
51 7 1
51 9 4
51 11 2
51 13 3
51 14 3
51 16 3
51 17 5
51 18 3
51 20 1
51 21 2
51 22 3
51 23 3
51 24 1
51 25 1
51 26 2
51 29 3
51 30 1
51 32 2
51 33 4
51 35 1
51 38 1
51 39 3
51 40 3
51 44 1
51 46 4
51 50 3
52 0 1
52 1 3
52 3 3
52 5 4
52 6 4
52 11 3
52 12 3
52 13 3
52 14 5
52 17 4
52 20 5
52 21 5
52 22 2
52 23 4
52 26 5
52 28 2
52 29 1
52 30 1
52 31 2
52 32 3
52 33 3
52 35 1
52 37 3
52 40 5
52 42 2
52 43 5
52 47 1
52 48 5
52 50 3
52 51 1
53 0 1
53 1 2
53 3 5
53 10 5
53 11 5
53 13 1
53 15 2
53 16 2
53 17 3
53 23 2
53 25 4
53 26 3
53 27 3
53 32 2
53 34 3
53 39 1
53 44 5
53 46 1
53 47 5
53 49 3
53 51 3
53 52 3
54 0 1
54 1 5
54 9 1
54 10 4
54 14 5
54 17 1
54 18 2
54 31 5
54 33 3
54 34 5
54 35 4
54 36 3
54 37 1
54 38 1
54 40 2
54 45 5
54 47 2
54 48 4
54 49 2
54 50 4
54 51 3
54 53 5
55 0 2
55 3 1
55 6 2
55 10 1
55 11 1
55 14 3
55 15 2
55 16 2
55 18 5
55 20 3
55 21 1
55 23 1
55 25 1
55 27 1
55 29 2
55 31 3
55 33 4
55 34 3
55 36 1
55 39 5
55 41 3
55 42 3
55 43 4
55 46 4
55 48 2
55 50 5
56 0 3
56 4 4
56 5 1
56 6 5
56 12 4
56 13 3
56 16 2
56 17 5
56 20 5
56 21 1
56 28 5
56 31 2
56 32 5
56 34 1
56 35 4
56 36 1
56 38 4
56 39 5
56 45 5
56 47 2
56 49 4
56 50 1
56 53 4
56 55 1
57 2 5
57 3 3
57 6 3
57 7 2
57 10 1
57 11 2
57 12 4
57 13 3
57 14 4
57 16 4
57 17 2
57 18 1
57 19 4
57 22 4
57 24 5
57 26 1
57 27 1
57 29 4
57 30 2
57 32 4
57 33 5
57 34 2
57 35 1
57 39 3
57 40 5
57 42 3
57 44 2
57 45 3
57 46 3
57 50 5
57 52 5
57 53 2
57 54 1
58 3 2
58 10 3
58 11 3
58 13 4
58 14 4
58 17 2
58 19 1
58 20 4
58 21 4
58 22 5
58 25 1
58 27 5
58 28 1
58 37 2
58 38 2
58 41 3
58 42 2
58 47 2
58 48 5
58 50 4
58 54 1
58 55 2
58 56 1
59 2 3
59 6 3
59 7 5
59 11 1
59 13 2
59 14 1
59 16 5
59 17 2
59 21 1
59 23 4
59 25 3
59 26 1
59 28 5
59 30 4
59 32 3
59 34 5
59 35 2
59 42 3
59 44 2
59 47 5
59 49 4
59 50 4
59 58 5
60 0 2
60 3 3
60 6 4
60 7 1
60 8 2
60 12 5
60 14 5
60 15 2
60 16 3
60 17 2
60 19 2
60 21 3
60 22 1
60 23 3
60 25 1
60 32 3
60 34 1
60 35 5
60 36 1
60 37 4
60 39 3
60 42 2
60 51 5
60 52 1
60 55 4
60 56 1
60 58 2
61 0 3
61 1 5
61 7 1
61 11 4
61 12 4
61 14 4
61 15 2
61 16 1
61 17 1
61 18 3
61 20 2
61 21 4
61 22 2
61 24 4
61 25 3
61 26 3
61 28 3
61 29 4
61 30 4
61 31 5
61 33 1
61 34 2
61 35 4
61 36 4
61 37 5
61 38 1
61 42 2
61 43 4
61 46 3
61 47 4
61 48 2
61 49 4
61 50 2
61 55 5
61 56 1
61 58 1
61 59 3
62 0 5
62 3 3
62 5 5
62 6 4
62 7 5
62 11 5
62 12 5
62 13 4
62 14 3
62 15 3
62 16 1
62 17 5
62 20 4
62 25 1
62 26 4
62 29 1
62 30 3
62 32 5
62 33 1
62 35 3
62 36 4
62 37 5
62 38 5
62 39 4
62 40 1
62 41 4
62 42 2
62 46 2
62 51 4
62 52 5
62 53 4
62 54 2
62 56 5
62 57 3
62 58 4
62 59 2
62 60 1
62 61 2
63 1 2
63 3 3
63 5 3
63 6 3
63 14 1
63 15 5
63 16 2
63 17 3
63 20 2
63 23 5
63 24 2
63 25 4
63 26 3
63 27 4
63 28 3
63 29 5
63 31 5
63 34 5
63 35 4
63 37 2
63 38 3
63 39 4
63 41 2
63 44 1
63 45 1
63 46 5
63 49 4
63 50 3
63 51 2
63 53 3
63 56 4
63 58 5
63 61 4
64 1 3
64 2 5
64 3 3
64 7 3
64 9 1
64 10 5
64 11 1
64 12 1
64 15 4
64 21 5
64 22 1
64 27 1
64 28 3
64 29 4
64 31 3
64 32 2
64 35 1
64 36 2
64 41 1
64 42 5
64 45 1
64 46 1
64 51 3
64 53 3
64 56 2
64 57 4
64 61 5
65 3 3
65 6 5
65 7 1
65 9 2
65 11 1
65 14 4
65 15 5
65 16 1
65 21 5
65 22 3
65 25 1
65 27 1
65 29 3
65 30 4
65 31 5
65 39 2
65 45 5
65 49 4
65 51 3
65 53 3
65 54 3
65 58 3
65 59 5
65 60 5
65 61 2
65 62 2
65 64 5
